
******************************************************************************
This program contains Ipopt, a library for large-scale nonlinear optimization.
 Ipopt is released as open source code under the Eclipse Public License (EPL).
         For more information visit http://projects.coin-or.org/Ipopt

This version of Ipopt was compiled from source code available at
    https://github.com/IDAES/Ipopt as part of the Institute for the Design of
    Advanced Energy Systems Process Systems Engineering Framework (IDAES PSE
    Framework) Copyright (c) 2018-2019. See https://github.com/IDAES/idaes-pse.

This version of Ipopt was compiled using HSL, a collection of Fortran codes
    for large-scale scientific computation.  All technical papers, sales and
    publicity material resulting from use of the HSL codes within IPOPT must
    contain the following acknowledgement:
        HSL, a collection of Fortran codes for large-scale scientific
        computation. See http://www.hsl.rl.ac.uk.
******************************************************************************

This is Ipopt version 3.13.2, running with linear solver ma27.

Number of nonzeros in equality constraint Jacobian...:      808
Number of nonzeros in inequality constraint Jacobian.:        0
Number of nonzeros in Lagrangian Hessian.............:      702

Total number of variables............................:      351
                     variables with only lower bounds:      108
                variables with lower and upper bounds:      189
                     variables with only upper bounds:        0
Total number of equality constraints.................:      350
Total number of inequality constraints...............:        0
        inequality constraints with only lower bounds:        0
   inequality constraints with lower and upper bounds:        0
        inequality constraints with only upper bounds:        0

iter    objective    inf_pr   inf_du lg(mu)  ||d||  lg(rg) alpha_du alpha_pr  ls
   0  0.0000000e+00 1.49e+00 1.62e-14  -1.0 0.00e+00    -  0.00e+00 0.00e+00   0
   1  1.3329349e+01 1.05e+00 1.20e+06  -1.0 7.87e+06    -  9.99e-03 3.60e-02h  1
   2  1.3568067e+01 1.05e+00 1.20e+06  -1.0 1.02e+07    -  2.47e-02 2.51e-04h  1
   3  1.3637877e+01 1.05e+00 1.20e+06  -1.0 2.43e+07    -  6.43e-03 4.98e-05h  1
   4  2.4841946e+01 1.04e+00 2.40e+06  -1.0 2.52e+07    -  6.03e-03 5.12e-03h  1
   5  4.1602446e+01 1.03e+00 3.73e+06  -1.0 2.44e+07    -  1.11e-02 4.72e-03h  2
   6  5.9008121e+01 1.02e+00 4.95e+06  -1.0 2.37e+07    -  1.58e-02 3.69e-03h  3
   7  6.0191004e+01 1.02e+00 4.96e+06  -1.0 2.28e+07    -  2.79e-02 2.29e-04h  7
   8  6.0484709e+01 1.02e+00 4.96e+06  -1.0 2.27e+07    -  2.89e-02 5.64e-05h  9
   9r 6.0484709e+01 1.02e+00 9.99e+02   0.0 0.00e+00    -  0.00e+00 4.48e-07R 14
iter    objective    inf_pr   inf_du lg(mu)  ||d||  lg(rg) alpha_du alpha_pr  ls
  10r 6.0484735e+01 9.95e-01 9.97e+02   0.0 1.77e+03    -  4.59e-03 1.60e-03f  1
  11r 6.0484792e+01 9.41e-01 9.90e+02   0.0 1.46e+03    -  1.29e-02 7.29e-03f  1
  12r 6.0484796e+01 9.31e-01 9.84e+02   0.0 4.47e+02    -  3.67e-02 5.74e-03f  1
  13r 6.0484790e+01 8.91e-01 9.54e+02   0.0 9.39e+01    -  1.04e-01 3.11e-02f  1
  14r 6.0484790e+01 8.91e-01 9.99e+02  -0.0 0.00e+00    -  0.00e+00 1.77e-07R  2
  15r 6.0484711e+01 8.81e-01 9.87e+02  -0.0 6.20e+01    -  7.62e-02 1.20e-02f  1
  16r 6.0484551e+01 8.55e-01 9.64e+02  -0.0 7.13e+01    -  4.50e-03 2.32e-02f  1
  17r 6.0483799e+01 7.34e-01 9.28e+02  -0.0 7.23e+01    -  2.82e-02 1.06e-01f  1
  18  6.0583038e+01 7.34e-01 8.64e+02  -1.0 3.45e+07    -  2.69e-03 4.33e-05h  1
  19r 6.0583038e+01 7.34e-01 9.99e+02  -0.1 0.00e+00    -  0.00e+00 2.57e-07R  2
iter    objective    inf_pr   inf_du lg(mu)  ||d||  lg(rg) alpha_du alpha_pr  ls
  20r 6.0582959e+01 7.20e-01 9.89e+02  -0.1 8.33e+01    -  5.19e-02 9.88e-03f  1
  21r 6.0582640e+01 7.46e-01 9.49e+02  -0.1 9.14e+01    -  8.46e-03 4.08e-02f  1
  22r 6.0582588e+01 7.60e-01 9.41e+02  -0.1 7.69e+01    -  8.52e-02 8.70e-03f  1
  23r 6.0582095e+01 9.31e-01 8.59e+02  -0.1 9.39e+01    -  9.78e-02 8.71e-02f  1
  24r 6.0581761e+01 1.01e+00 7.64e+02  -0.1 6.26e+01    -  2.87e-01 1.11e-01f  1
  25r 6.0581418e+01 2.10e+00 6.38e+02  -0.1 9.43e+01    -  1.75e-01 1.64e-01f  1
  26r 6.0581418e+01 2.06e+00 6.26e+02  -0.1 2.04e+00   4.0 2.71e-02 2.18e-02f  1
  27r 6.0581418e+01 1.67e+00 2.25e+03  -0.1 1.38e+00   3.5 1.85e-03 2.85e-01h  1
  28r 6.0581418e+01 1.29e+00 1.54e+03  -0.1 7.86e-01   3.0 2.86e-01 4.74e-01h  1
  29r 6.0581418e+01 1.09e+00 6.02e+02  -0.1 1.16e+00   2.6 4.00e-01 7.95e-01f  1
iter    objective    inf_pr   inf_du lg(mu)  ||d||  lg(rg) alpha_du alpha_pr  ls
  30r 6.0581418e+01 1.09e+00 5.79e+02  -0.1 2.70e+00   2.1 6.60e-01 8.37e-02f  1
  31r 6.0581418e+01 1.09e+00 6.43e+02  -0.1 2.87e-01   1.6 4.01e-01 2.25e-02f  1
  32r 6.0581418e+01 1.07e+00 3.40e+02  -0.1 8.45e-01   1.1 9.20e-01 6.65e-01f  1
  33r 6.0581418e+01 1.06e+00 1.18e+02  -0.1 2.30e+00   0.7 6.54e-01 6.53e-01f  1
  34r 6.0581418e+01 1.05e+00 2.52e+01  -0.1 5.41e+00   0.2 9.90e-01 9.35e-01f  1
  35r 6.0581418e+01 1.04e+00 1.88e+02  -0.1 9.98e+00  -0.3 7.77e-01 5.15e-01f  1
  36r 6.0581418e+01 1.03e+00 1.13e+02  -0.1 3.77e+00   0.1 9.90e-01 7.13e-01f  1
  37r 6.0581417e+01 1.02e+00 5.22e+02  -0.1 2.31e+00  -0.3 1.00e+00 3.45e-01f  1
  38r 6.0581417e+01 1.01e+00 2.58e+00  -0.1 7.90e-01   0.1 1.00e+00 1.00e+00f  1
  39r 6.0581417e+01 1.04e+00 2.20e+00  -1.5 2.81e+00  -0.4 5.80e-01 5.80e-01f  1
iter    objective    inf_pr   inf_du lg(mu)  ||d||  lg(rg) alpha_du alpha_pr  ls
  40r 6.0581417e+01 1.03e+00 2.20e+00  -1.5 7.16e+00  -0.9 1.39e-01 1.34e-01f  1
  41r 6.0581417e+01 1.04e+00 1.83e+02  -1.5 4.32e+01  -1.4 1.28e-01 3.03e-01f  1
  42r 6.0581417e+01 1.05e+00 4.33e+02  -1.5 1.52e+01  -0.9 8.91e-02 6.03e-01f  1
  43r 6.0581417e+01 1.05e+00 1.37e+02  -1.5 5.53e-02   3.1 1.00e+00 7.25e-01f  1
  44r 6.0581417e+01 1.05e+00 3.02e+02  -1.5 4.27e-01   2.6 2.06e-01 1.00e+00f  1
  45r 6.0581417e+01 1.05e+00 2.74e+02  -1.5 2.68e+00   2.2 1.19e-01 1.20e-01f  1
  46r 6.0581417e+01 1.05e+00 2.86e+02  -1.5 5.45e-01   1.7 2.29e-03 5.90e-03f  1
  47r 6.0581417e+01 1.05e+00 3.57e+02  -1.5 1.38e-01   1.2 1.00e+00 3.08e-02h  1
  48r 6.0581417e+01 1.06e+00 6.08e+02  -1.5 3.29e-01   0.7 1.18e-01 1.00e+00f  1
  49r 6.0581417e+01 1.06e+00 2.19e+02  -1.5 9.23e-01   0.3 1.00e+00 6.74e-01f  1
iter    objective    inf_pr   inf_du lg(mu)  ||d||  lg(rg) alpha_du alpha_pr  ls
  50r 6.0581417e+01 1.06e+00 5.98e+01  -1.5 2.78e+00  -0.2 5.19e-01 1.00e+00f  1
  51r 6.0581417e+01 1.06e+00 9.35e+00  -1.5 8.19e+00  -0.7 1.00e+00 9.14e-01f  1
  52r 6.0581417e+01 1.06e+00 3.45e+01  -1.5 2.42e+01  -1.2 1.00e+00 3.57e-01f  1
  53r 6.0581417e+01 1.06e+00 1.80e+03  -1.5 5.44e+01  -1.7 1.00e+00 1.31e-02f  1
  54r 6.0581416e+01 1.06e+00 1.44e+03  -1.5 1.02e+02  -2.1 7.65e-02 1.36e-01f  1
  55r 6.0581415e+01 1.06e+00 8.08e+02  -1.5 5.80e+01  -1.7 1.00e+00 2.89e-01f  1
  56r 6.0581413e+01 1.06e+00 5.44e+02  -1.5 1.19e+02  -2.2 8.63e-02 2.16e-01f  1
  57r 6.0581413e+01 1.06e+00 3.91e+02  -1.5 5.84e+01  -1.8 5.51e-01 6.71e-02f  1
  58r 6.0581413e+01 1.06e+00 3.81e+02  -1.5 1.15e+02  -2.2 4.26e-03 1.80e-02f  1
  59r 6.0581413e+01 1.06e+00 7.03e+02  -1.5 2.71e+01  -1.8 5.74e-01 3.11e-02f  1
iter    objective    inf_pr   inf_du lg(mu)  ||d||  lg(rg) alpha_du alpha_pr  ls
  60r 6.0581413e+01 1.06e+00 6.47e+02  -1.5 1.73e+02  -2.3 2.11e-03 1.78e-02f  1
  61r 6.0581412e+01 1.05e+00 7.14e+02  -1.5 4.43e+00  -1.0 7.68e-01 1.76e-01f  1
  62r 6.0581413e+01 1.05e+00 8.99e+02  -1.5 2.11e+01  -1.4 1.64e-03 2.74e-01f  1
  63r 6.0581413e+01 1.05e+00 8.97e+02  -1.5 1.28e+03  -0.1 1.01e-03 2.22e-03f  1
  64r 6.0581413e+01 1.05e+00 8.95e+02  -1.5 1.94e+01   0.3 4.39e-02 1.76e-03f  1
  65r 6.0581413e+01 1.05e+00 8.66e+02  -1.5 9.27e+01  -0.2 1.03e-02 3.29e-02f  1
  66r 6.0581413e+01 1.05e+00 8.66e+02  -1.5 7.61e+01  -0.6 1.23e-01 5.58e-04f  1
  67r 6.0581413e+01 1.05e+00 7.84e+02  -1.5 1.42e+01  -1.1 9.28e-04 9.41e-02f  1
  68r 6.0581413e+01 1.05e+00 7.08e+02  -1.5 5.74e+01   0.2 1.27e-02 9.69e-02f  1
  69r 6.0581413e+01 1.05e+00 7.05e+02  -1.5 1.76e+01   0.6 1.09e-01 3.71e-03f  1
iter    objective    inf_pr   inf_du lg(mu)  ||d||  lg(rg) alpha_du alpha_pr  ls
  70r 6.0581413e+01 1.05e+00 7.44e+02  -1.5 7.94e+00   0.2 4.69e-01 2.68e-02f  1
  71r 6.0581413e+01 1.05e+00 7.30e+02  -1.5 1.05e+01  -0.3 8.17e-02 5.80e-02f  1
  72r 6.0581413e+01 1.05e+00 1.37e+03  -1.5 9.00e+00  -0.8 5.38e-01 1.52e-02f  1
  73r 6.0581413e+01 1.05e+00 1.23e+03  -1.5 9.42e+00  -1.3 1.82e-01 1.23e-01f  1
  74r 6.0581412e+01 1.05e+00 1.11e+03  -1.5 2.45e+01  -1.7 1.45e-01 2.13e-02f  1
  75r 6.0581412e+01 1.16e+00 9.62e+02  -1.5 1.03e+01  -1.3 9.91e-02 2.08e-01f  1
  76r 6.0581412e+01 1.10e+00 9.08e+02  -1.5 1.84e+01  -0.9 6.13e-02 4.56e-02f  1
  77r 6.0581412e+01 1.08e+00 1.30e+03  -1.5 2.03e+02  -0.5 1.23e-04 2.17e-02f  1
  78r 6.0581412e+01 1.05e+00 1.19e+03  -1.5 5.72e+00   0.9 2.02e-01 8.56e-02f  1
  79r 6.0581412e+01 1.05e+00 1.11e+03  -1.5 1.11e+00   2.2 9.49e-04 6.91e-02f  1
iter    objective    inf_pr   inf_du lg(mu)  ||d||  lg(rg) alpha_du alpha_pr  ls
  80r 6.0581412e+01 1.05e+00 1.11e+03  -1.5 9.20e-01   2.6 1.41e-01 1.08e-03f  1
  81r 6.0581412e+01 1.05e+00 9.30e+02  -1.5 9.19e-01   2.1 7.12e-01 2.58e-01f  1
  82r 6.0581412e+01 1.05e+00 7.68e+02  -1.5 6.82e-01   1.7 4.49e-01 6.64e-02f  1
  83r 6.0581412e+01 1.05e+00 1.98e+02  -1.5 1.80e+00   1.2 1.00e+00 7.42e-01f  1
  84r 6.0581412e+01 1.05e+00 1.66e+02  -1.5 5.30e+00   0.7 8.90e-01 1.57e-01f  1
  85r 6.0581412e+01 1.05e+00 8.31e+02  -1.5 1.72e+00   0.2 1.00e+00 5.34e-03f  1
  86r 6.0581412e+01 1.05e+00 5.90e+02  -1.5 1.38e+00  -0.2 1.00e+00 3.62e-01f  1
  87r 6.0581412e+01 1.05e+00 1.59e+02  -1.5 2.48e+00  -0.7 1.00e+00 7.30e-01f  1
  88r 6.0580732e+01 1.05e+00 1.96e+03  -1.5 6.75e+03    -  2.69e-01 2.15e-03f  1
  89r 6.0323121e+01 1.05e+00 3.97e+03  -1.5 6.56e+03    -  3.80e-03 8.35e-01f  1
iter    objective    inf_pr   inf_du lg(mu)  ||d||  lg(rg) alpha_du alpha_pr  ls
  90r 6.0323121e+01 1.05e+00 2.91e+03  -1.5 5.62e+00  -1.2 1.00e+00 2.70e-01f  1
  91r 6.0323369e+01 1.05e+00 2.89e+03  -1.5 4.68e+03    -  3.64e-01 4.66e-03f  1
  92r 6.0379023e+01 1.04e+00 3.34e+03  -1.5 4.60e+03    -  5.83e-03 1.00e+00f  1
  93r 6.0379024e+01 1.04e+00 2.82e+03  -1.5 1.20e+01  -1.7 5.23e-01 1.55e-01f  1
  94r 6.0378789e+01 1.04e+00 2.80e+03  -1.5 3.44e+03    -  5.49e-01 6.26e-03f  1
  95r 6.0344644e+01 1.04e+00 1.51e+03  -1.5 3.33e+03    -  1.29e-02 1.00e+00f  1
  96r 6.0344647e+01 1.32e+01 1.95e+02  -1.5 2.41e+01  -2.2 2.67e-01 1.00e+00f  1
  97r 6.0344647e+01 1.31e+01 1.95e+02  -1.5 1.37e+02   0.1 1.11e-02 7.14e-03f  1
  98r 6.0344647e+01 1.30e+01 1.92e+02  -1.5 4.30e+02  -0.4 9.69e-03 1.03e-02f  1
  99r 6.0344647e+01 1.26e+01 1.02e+03  -1.5 5.13e+01   0.0 8.16e-03 3.20e-02f  1
iter    objective    inf_pr   inf_du lg(mu)  ||d||  lg(rg) alpha_du alpha_pr  ls
 100r 6.0344647e+01 1.26e+01 1.07e+03  -1.5 1.00e+03  -0.4 7.03e-03 2.46e-04f  1
 101r 6.0344647e+01 1.24e+01 9.50e+02  -1.5 5.97e+01  -0.0 1.11e-03 1.26e-02f  1
 102r 6.0344647e+01 1.24e+01 2.14e+03  -1.5 2.40e+04  -0.5 8.54e-04 7.49e-05f  1
 103r 6.0344647e+01 1.24e+01 2.19e+03  -1.5 5.72e+01  -0.1 4.35e-03 1.31e-03f  1
 104r 6.0344647e+01 1.23e+01 1.97e+03  -1.5 2.15e+01   0.4 2.52e-02 8.67e-03f  1
 105r 6.0344647e+01 1.21e+01 1.63e+03  -1.5 6.88e+01  -0.1 6.80e-03 1.92e-02f  1
 106r 6.0344647e+01 1.20e+01 1.63e+03  -1.5 1.90e+01   0.3 1.73e-03 1.96e-03f  1
 107r 6.0344647e+01 1.20e+01 1.52e+03  -1.5 1.15e+02  -0.2 7.77e-04 1.45e-03f  1
 108r 6.0344647e+01 1.20e+01 1.59e+03  -1.5 1.20e+01   1.2 1.71e-01 6.63e-04f  1
 109r 6.0344647e+01 1.19e+01 1.56e+03  -1.5 1.20e+01   2.5 1.43e-02 9.65e-03f  1
iter    objective    inf_pr   inf_du lg(mu)  ||d||  lg(rg) alpha_du alpha_pr  ls
 110r 6.0344647e+01 1.19e+01 1.61e+03  -1.5 1.19e+01   2.9 1.92e-04 1.75e-03f  1
 111r 6.0344647e+01 1.19e+01 1.06e+03  -1.5 1.19e+01   2.4 2.71e-03 1.63e-04f  1
 112r 6.0344647e+01 1.18e+01 1.60e+03  -1.5 1.19e+01   2.9 1.56e-03 5.86e-03f  1
 113r 6.0344647e+01 1.18e+01 1.61e+03  -1.5 1.18e+01   2.4 1.37e-03 3.84e-03f  1
 114r 6.0344647e+01 1.18e+01 1.80e+03  -1.5 1.18e+01   2.8 1.05e-02 3.05e-04f  1
 115r 6.0344647e+01 1.16e+01 1.59e+03  -1.5 1.18e+01   2.3 3.67e-04 1.13e-02f  1
 116r 6.0344647e+01 1.16e+01 1.58e+03  -1.5 1.16e+01   1.9 3.96e-03 4.37e-03f  1
 117r 6.0344647e+01 1.16e+01 1.89e+03  -1.5 1.16e+01   1.4 1.72e-02 7.21e-04f  1
 118r 6.0344647e+01 1.13e+01 1.81e+03  -1.5 1.16e+01   0.9 1.54e-03 1.96e-02f  1
 119r 6.0344647e+01 1.13e+01 1.81e+03  -1.5 1.13e+01   1.3 7.88e-03 3.33e-03f  1
iter    objective    inf_pr   inf_du lg(mu)  ||d||  lg(rg) alpha_du alpha_pr  ls
 120r 6.0344647e+01 1.12e+01 1.80e+03  -1.5 1.13e+01   2.7 7.56e-03 4.01e-03f  1
 121r 6.0344647e+01 1.12e+01 1.79e+03  -1.5 1.12e+01   2.2 2.06e-02 5.25e-03f  1
 122r 6.0344647e+01 1.10e+01 1.76e+03  -1.5 1.12e+01   2.6 2.01e-03 1.34e-02f  1
 123r 6.0344647e+01 1.09e+01 1.73e+03  -1.5 1.10e+01   3.0 1.58e-02 1.71e-02f  1
 124r 6.0344647e+01 1.08e+01 1.73e+03  -1.5 1.08e+01   2.6 3.20e-03 5.51e-04f  1
 125r 6.0344647e+01 1.08e+01 1.72e+03  -1.5 1.08e+01   3.0 2.57e-03 3.86e-03f  1
 126r 6.0344647e+01 1.08e+01 1.72e+03  -1.5 1.02e+01   2.5 1.34e-04 1.08e-03h  1
 127r 6.0344647e+01 1.08e+01 1.72e+03  -1.5 1.02e+01   2.9 2.64e-03 5.64e-04h  1
 128r 6.0344647e+01 1.08e+01 1.72e+03  -1.5 9.17e+00   3.4 8.52e-05 1.53e-03h  1
 129r 6.0344647e+01 1.08e+01 1.71e+03  -1.5 9.17e+00   2.9 9.38e-04 2.58e-03h  1
iter    objective    inf_pr   inf_du lg(mu)  ||d||  lg(rg) alpha_du alpha_pr  ls
 130r 6.0344647e+01 1.08e+01 1.71e+03  -1.5 9.08e+00   3.3 2.44e-03 2.49e-03h  1
 131r 6.0344647e+01 1.08e+01 1.71e+03  -1.5 8.55e+00   2.8 6.71e-04 1.39e-03h  1
 132r 6.0344647e+01 1.08e+01 1.70e+03  -1.5 7.76e+00   3.2 2.38e-04 2.08e-03h  1
 133r 6.0344647e+01 1.07e+01 1.69e+03  -1.5 7.75e+00   2.8 7.91e-03 5.50e-03h  1
 134r 6.0344647e+01 1.07e+01 1.69e+03  -1.5 7.68e+00   3.2 4.09e-03 5.62e-03h  1
 135r 6.0344647e+01 1.00e+01 2.59e+03  -1.5 7.54e+00   2.7 6.55e-04 1.63e-01h  1
 136r 6.0344647e+01 9.99e+00 2.55e+03  -1.5 5.66e+00   3.1 6.59e-03 1.41e-02h  1
 137r 6.0344647e+01 9.93e+00 2.51e+03  -1.5 5.72e+00   3.6 2.20e-03 2.19e-02h  2
 138r 6.0344647e+01 9.90e+00 2.49e+03  -1.5 5.42e+00   3.1 7.95e-03 6.98e-03h  3
 139r 6.0344647e+01 9.89e+00 2.48e+03  -1.5 5.54e+00   3.5 3.76e-03 3.92e-03h  3
iter    objective    inf_pr   inf_du lg(mu)  ||d||  lg(rg) alpha_du alpha_pr  ls
 140r 6.0344647e+01 9.89e+00 2.48e+03  -1.5 5.33e+00   3.0 9.02e-03 9.16e-04h  7
 141r 6.0344647e+01 9.89e+00 2.47e+03  -1.5 5.50e+00   3.5 2.04e-03 6.97e-04h  6
 142r 6.0344647e+01 9.84e+00 2.42e+03  -1.5 5.28e+00   3.0 1.20e-03 1.45e-02h  1
 143r 6.0344647e+01 9.78e+00 2.37e+03  -1.5 5.41e+00   3.4 9.54e-03 2.33e-02h  1
 144r 6.0344647e+01 9.75e+00 2.35e+03  -1.5 5.03e+00   2.9 2.09e-03 7.90e-03h  1
 145r 6.0344647e+01 9.68e+00 2.30e+03  -1.5 5.22e+00   3.4 4.15e-03 2.35e-02h  1
 146r 6.0344647e+01 9.61e+00 2.24e+03  -1.5 4.81e+00   2.9 1.72e-02 2.61e-02h  1
 147r 6.0344647e+01 9.47e+00 2.41e+03  -1.5 4.93e+00   3.3 3.04e-02 4.91e-02h  1
 148r 6.0344647e+01 9.34e+00 2.43e+03  -1.5 4.18e+00   2.8 4.04e-03 4.15e-02h  1
 149r 6.0344647e+01 9.19e+00 2.69e+03  -1.5 4.12e+00   3.3 1.08e-02 5.25e-02h  1
iter    objective    inf_pr   inf_du lg(mu)  ||d||  lg(rg) alpha_du alpha_pr  ls
 150r 6.0344647e+01 9.07e+00 2.67e+03  -1.5 3.64e+00   2.8 3.92e-02 4.04e-02h  1
 151r 6.0344647e+01 9.00e+00 2.77e+03  -1.5 3.68e+00   3.2 1.34e-02 2.72e-02h  1
 152r 6.0344647e+01 8.98e+00 2.76e+03  -1.5 3.34e+00   2.7 4.32e-02 9.04e-03h  1
 153r 6.0344647e+01 8.69e+00 3.02e+03  -1.5 3.53e+00   3.2 1.59e-02 1.11e-01h  1
 154r 6.0344647e+01 8.59e+00 2.96e+03  -1.5 2.86e+00   2.7 1.02e-01 3.87e-02h  1
 155r 6.0344647e+01 8.54e+00 2.98e+03  -1.5 2.98e+00   3.1 9.22e-02 2.30e-02h  1
 156r 6.0344647e+01 8.52e+00 2.96e+03  -1.5 2.61e+00   2.6 2.38e-02 8.44e-03h  1
 157r 6.0344647e+01 8.47e+00 2.97e+03  -1.5 2.86e+00   3.1 9.55e-03 1.93e-02h  1
 158r 6.0344647e+01 8.43e+00 3.09e+03  -1.5 2.91e+00   3.5 1.52e-02 2.09e-02h  1
 159r 6.0344647e+01 6.30e+00 2.78e+03  -1.5 2.72e+00   3.0 3.93e-03 1.00e+00h  1
iter    objective    inf_pr   inf_du lg(mu)  ||d||  lg(rg) alpha_du alpha_pr  ls
 160r 6.0344647e+01 6.29e+00 2.25e+03  -1.5 2.26e-01   3.4 2.47e-01 1.78e-01f  1
 161r 6.0344647e+01 6.28e+00 2.01e+03  -1.5 8.44e-02   3.9 1.00e+00 1.77e-01f  1
 162r 6.0344647e+01 6.26e+00 1.34e+03  -1.5 2.54e-01   3.4 2.95e-01 3.36e-01f  1
 163r 6.0344647e+01 6.25e+00 1.28e+03  -1.5 7.60e-01   2.9 3.73e-01 3.97e-02f  1
 164r 6.0344647e+01 6.22e+00 9.11e+02  -1.5 2.85e-01   3.3 7.46e-01 2.91e-01f  1
 165r 6.0344647e+01 6.17e+00 8.33e+02  -1.5 8.55e-01   2.9 3.06e-02 1.75e-01f  1
 166r 6.0344647e+01 6.16e+00 8.13e+02  -1.5 3.20e-01   3.3 2.02e-01 8.20e-02f  1
 167r 6.0344647e+01 6.15e+00 7.98e+02  -1.5 9.54e-01   2.8 1.69e-02 6.33e-02f  1
 168r 6.0344647e+01 6.14e+00 7.98e+02  -1.5 3.45e-01   3.2 1.00e+00 3.17e-03f  1
 169r 6.0344647e+01 6.10e+00 7.69e+02  -1.5 1.03e+00   2.8 5.77e-02 1.32e-01f  1
iter    objective    inf_pr   inf_du lg(mu)  ||d||  lg(rg) alpha_du alpha_pr  ls
 170r 6.0344647e+01 6.10e+00 7.64e+02  -1.5 3.88e-01   3.2 1.27e-01 2.78e-02f  1
 171r 6.0344647e+01 6.07e+00 7.53e+02  -1.5 1.16e+00   2.7 6.09e-03 6.23e-02f  1
 172r 6.0344647e+01 6.07e+00 1.25e+03  -1.5 4.40e-01   3.1 4.06e-01 2.83e-02f  1
 173r 6.0344647e+01 6.05e+00 1.03e+03  -1.5 1.33e+00   2.7 3.82e-03 4.85e-02f  1
 174r 6.0344647e+01 6.02e+00 8.50e+02  -1.5 4.90e-01   3.1 5.60e-01 1.45e-01f  1
 175r 6.0344647e+01 6.01e+00 1.18e+03  -1.5 1.50e+00   2.6 2.70e-01 2.34e-02f  1
 176r 6.0344647e+01 6.00e+00 8.15e+02  -1.5 5.51e-01   3.0 3.91e-01 4.87e-02f  1
 177r 6.0344647e+01 5.98e+00 8.85e+02  -1.5 1.65e+00   2.5 3.08e-02 4.34e-02f  1
 178r 6.0344647e+01 5.97e+00 1.43e+03  -1.5 6.25e-01   3.0 3.52e-01 2.40e-02f  1
 179r 6.0344647e+01 5.91e+00 1.47e+03  -1.5 1.85e+00   2.5 1.45e-02 9.94e-02f  1
iter    objective    inf_pr   inf_du lg(mu)  ||d||  lg(rg) alpha_du alpha_pr  ls
 180r 6.0344647e+01 5.91e+00 1.50e+03  -1.5 7.00e-01   2.9 2.39e-01 5.31e-03f  1
 181r 6.0344647e+01 5.89e+00 1.18e+03  -1.5 2.62e-01   3.3 4.21e-01 2.05e-01f  1
 182r 6.0344647e+01 5.85e+00 9.40e+02  -1.5 7.86e-01   2.9 1.78e-02 1.80e-01f  1
 183r 6.0344647e+01 5.85e+00 9.55e+02  -1.5 2.61e-01   3.3 1.00e+00 6.49e-03f  1
 184r 6.0344647e+01 5.64e+00 5.49e+02  -1.5 5.14e-01   2.8 1.55e-01 4.18e-01f  1
 185r 6.0344647e+01 5.64e+00 8.91e+02  -1.5 1.54e+00   2.3 1.45e-01 2.24e-03f  1
 186r 6.0344647e+01 5.21e+00 4.98e+02  -1.5 4.63e+00   1.9 1.75e-02 9.62e-02f  1
 187r 6.0344647e+01 5.20e+00 4.94e+02  -1.5 2.17e-01   3.2 1.00e+00 2.08e-02f  1
 188r 6.0344647e+01 5.18e+00 4.88e+02  -1.5 6.50e-01   2.7 4.54e-02 3.49e-02f  1
 189r 6.0344647e+01 5.10e+00 4.50e+02  -1.5 2.44e-01   3.1 1.00e+00 3.47e-01f  1
iter    objective    inf_pr   inf_du lg(mu)  ||d||  lg(rg) alpha_du alpha_pr  ls
 190r 6.0344647e+01 5.10e+00 4.49e+02  -1.5 7.32e-01   2.7 7.74e-02 3.04e-03f  1
 191r 6.0344647e+01 4.84e+00 3.41e+02  -1.5 2.74e-01   3.1 1.00e+00 1.00e+00f  1
 192r 6.0344647e+01 4.81e+00 3.41e+02  -1.5 8.23e-01   2.6 1.36e-01 3.95e-02f  1
 193r 6.0344647e+01 4.80e+00 8.71e+02  -1.5 3.09e-01   3.0 2.81e-01 2.55e-02f  1
 194r 6.0344647e+01 4.62e+00 3.41e+02  -1.5 9.26e-01   2.6 2.68e-03 2.02e-01f  1
 195r 6.0344647e+01 4.62e+00 3.41e+02  -1.5 3.47e-01   3.0 8.92e-01 5.70e-03f  1
 196r 6.0344647e+01 4.59e+00 3.41e+02  -1.5 5.50e+00   2.5 3.28e-02 2.45e-02f  1
 197r 6.0344647e+01 4.58e+00 1.05e+03  -1.5 3.91e-01   2.9 2.99e-01 2.56e-02f  1
 198r 6.0344647e+01 4.54e+00 8.81e+02  -1.5 3.43e+00   2.5 1.91e-03 3.40e-02f  1
 199r 6.0344647e+01 4.54e+00 9.16e+02  -1.5 4.39e-01   2.9 2.83e-02 6.73e-03f  1
iter    objective    inf_pr   inf_du lg(mu)  ||d||  lg(rg) alpha_du alpha_pr  ls
 200r 6.0344647e+01 4.51e+00 1.11e+03  -1.5 1.65e-01   3.3 6.67e-01 2.05e-01f  1
 201r 6.0344647e+01 4.24e+00 5.55e+02  -1.5 4.94e-01   2.8 1.30e-02 5.57e-01f  1
 202r 6.0344647e+01 4.24e+00 6.65e+02  -1.5 1.85e-01   3.3 6.40e-01 2.39e-02f  1
 203r 6.0344647e+01 4.11e+00 3.41e+02  -1.5 5.56e-01   2.8 1.58e-01 2.47e-01f  1
 204r 6.0344647e+01 4.00e+00 3.41e+02  -1.5 2.08e-01   3.2 3.91e-01 5.28e-01f  1
 205r 6.0344647e+01 4.00e+00 3.41e+02  -1.5 6.01e-01   2.7 6.54e-02 2.15e-03f  1
 206r 6.0344647e+01 3.93e+00 4.58e+02  -1.5 2.25e-01   3.2 1.00e+00 3.35e-01f  1
 207r 6.0344647e+01 3.92e+00 4.56e+02  -1.5 6.76e-01   2.7 1.13e-01 2.55e-03f  1
 208r 6.0344647e+01 3.73e+00 3.79e+02  -1.5 2.54e-01   3.1 4.10e-01 7.54e-01f  1
 209r 6.0344647e+01 3.73e+00 3.27e+02  -1.5 7.61e-01   2.6 1.23e-01 9.44e-03f  1
iter    objective    inf_pr   inf_du lg(mu)  ||d||  lg(rg) alpha_du alpha_pr  ls
 210r 6.0344647e+01 3.62e+00 3.27e+02  -1.5 2.85e-01   3.1 1.00e+00 3.58e-01f  1
 211r 6.0344647e+01 3.58e+00 3.27e+02  -1.5 8.56e-01   2.6 6.83e-02 5.08e-02f  1
 212r 6.0344647e+01 3.58e+00 3.76e+02  -1.5 3.21e-01   3.0 1.00e+00 3.16e-03f  1
 213r 6.0344647e+01 3.53e+00 3.45e+02  -1.5 5.05e+00   2.5 1.69e-02 5.50e-02f  1
 214r 6.0344647e+01 3.40e+00 4.94e+02  -1.5 3.61e-01   3.0 9.62e-01 3.44e-01f  1
 215r 6.0344647e+01 3.40e+00 4.76e+02  -1.5 1.35e-01   3.4 1.00e+00 1.14e-02f  1
 216r 6.0344647e+01 3.25e+00 3.27e+02  -1.5 4.06e-01   2.9 7.73e-02 3.70e-01f  1
 217r 6.0344647e+01 3.13e+00 3.28e+02  -1.5 1.52e-01   3.3 1.00e+00 7.76e-01f  1
 218r 6.0344647e+01 3.09e+00 3.28e+02  -1.5 7.07e-01   2.9 8.67e-02 9.63e-02f  1
 219r 6.0344647e+01 3.09e+00 3.28e+02  -1.5 1.71e-01   3.3 1.00e+00 6.63e-03f  1
iter    objective    inf_pr   inf_du lg(mu)  ||d||  lg(rg) alpha_du alpha_pr  ls
 220r 6.0344647e+01 2.91e+00 3.27e+02  -1.5 5.14e-01   2.8 4.87e-01 3.37e-01f  1
 221r 6.0344647e+01 2.89e+00 3.27e+02  -1.5 1.93e-01   3.2 1.00e+00 1.13e-01f  1
 222r 6.0344647e+01 2.85e+00 3.27e+02  -1.5 5.78e-01   2.8 4.68e-01 7.45e-02f  1
 223r 6.0344647e+01 2.85e+00 5.56e+02  -1.5 2.17e-01   3.2 1.00e+00 1.42e-02f  1
 224r 6.0344647e+01 2.54e+00 3.27e+02  -1.5 6.51e-01   2.7 3.93e-01 4.70e-01f  1
 225r 6.0344647e+01 2.53e+00 5.29e+02  -1.5 2.44e-01   3.1 1.00e+00 5.24e-02f  1
 226r 6.0344647e+01 2.36e+00 4.64e+02  -1.5 7.32e-01   2.7 4.38e-01 2.28e-01f  1
 227r 6.0344647e+01 2.35e+00 5.55e+02  -1.5 2.20e+00   2.2 1.00e+00 3.20e-03f  1
 228r 6.0344647e+01 1.65e+00 4.96e+02  -1.5 6.61e+00   1.7 1.00e+00 1.06e-01f  1
 229r 6.0344647e+01 1.10e+00 3.86e+02  -1.5 2.47e+00   2.1 1.00e+00 2.21e-01f  1
iter    objective    inf_pr   inf_du lg(mu)  ||d||  lg(rg) alpha_du alpha_pr  ls
 230r 6.0344647e+01 1.09e+00 4.70e+02  -1.5 7.43e+00   1.6 1.00e+00 2.62e-03f  1
 231r 6.0344647e+01 7.28e-01 6.29e+02  -1.5 2.20e+01   1.2 1.00e+00 3.43e-02f  1
 232r 6.0344647e+01 7.28e-01 6.13e+02  -1.5 1.30e+01   0.7 2.14e-01 2.51e-02f  1
 233r 6.0344647e+01 7.28e-01 4.94e+02  -1.5 3.75e-02   2.9 1.00e+00 1.96e-01f  1
 234r 6.0344647e+01 7.28e-01 3.15e+01  -1.5 1.13e-01   2.4 1.00e+00 9.66e-01f  1
 235r 6.0344647e+01 7.28e-01 3.17e+01  -1.5 3.41e-01   2.0 1.00e+00 8.30e-01f  1
 236r 6.0344647e+01 7.28e-01 1.13e+02  -1.5 1.05e+00   1.5 1.00e+00 1.13e-01f  1
 237r 6.0344647e+01 7.28e-01 5.62e+02  -1.5 3.34e+00   1.0 6.93e-01 1.32e-01f  1
 238r 6.0344647e+01 7.28e-01 4.77e+02  -1.5 1.46e-01   2.3 1.00e+00 3.88e-01f  1
 239r 6.0344647e+01 7.28e-01 1.44e+02  -1.5 4.43e-01   1.9 1.00e+00 7.81e-01f  1
iter    objective    inf_pr   inf_du lg(mu)  ||d||  lg(rg) alpha_du alpha_pr  ls
 240r 6.0344647e+01 7.27e-01 3.36e+01  -1.5 1.37e+00   1.4 1.00e+00 1.00e+00f  1
 241r 6.0344647e+01 7.27e-01 3.38e+01  -1.5 4.59e+00   0.9 2.31e-01 3.98e-02f  1
 242r 6.0344647e+01 7.27e-01 3.37e+01  -1.5 2.42e-02   3.1 1.00e+00 1.00e+00f  1
 243r 6.0344647e+01 7.27e-01 3.38e+01  -1.5 7.29e-02   2.7 1.00e+00 7.42e-01f  1
 244r 6.0344647e+01 7.27e-01 9.72e+01  -1.5 2.20e-01   2.2 1.00e+00 3.12e-01f  1
 245r 6.0344647e+01 7.27e-01 6.28e+02  -1.5 6.67e-01   1.7 1.00e+00 2.38e-01f  1
 246r 6.0344647e+01 7.27e-01 5.61e+02  -1.5 2.08e+00   1.2 1.09e-01 1.08e-01f  1
 247r 6.0344647e+01 7.27e-01 5.42e+02  -1.5 7.00e+00   0.8 1.01e-01 4.22e-02f  1
 248r 6.0344647e+01 7.27e-01 5.06e+02  -1.5 3.53e-02   3.0 1.00e+00 3.94e-02f  1
 249r 6.0344647e+01 7.27e-01 2.90e+02  -1.5 1.06e-01   2.5 1.00e+00 5.98e-01f  1
iter    objective    inf_pr   inf_du lg(mu)  ||d||  lg(rg) alpha_du alpha_pr  ls
 250r 6.0344647e+01 7.27e-01 3.48e+01  -1.5 3.20e-01   2.0 1.00e+00 1.00e+00f  1
 251r 6.0344647e+01 7.27e-01 3.50e+01  -1.5 9.77e-01   1.6 5.30e-01 2.87e-01f  1
 252r 6.0344647e+01 7.27e-01 7.79e+01  -1.5 2.79e+00   1.1 1.00e+00 2.59e-02f  1
 253r 6.0344647e+01 7.27e-01 8.82e+01  -1.5 9.48e+00   0.6 7.31e-02 1.61e-02f  1
 254r 6.0344647e+01 7.27e-01 6.92e+02  -1.5 4.47e-02   2.8 1.00e+00 6.93e-02f  1
 255r 6.0344647e+01 7.27e-01 3.08e+01  -1.5 1.34e-01   2.4 1.00e+00 1.00e+00f  1
 256r 6.0344647e+01 7.27e-01 3.11e+01  -1.5 4.07e-01   1.9 1.00e+00 1.00e+00f  1
 257r 6.0344647e+01 7.26e-01 3.21e+01  -1.5 1.26e+00   1.4 1.00e+00 1.00e+00f  1
 258r 6.0344647e+01 7.26e-01 3.30e+01  -1.5 4.19e+00   0.9 2.76e-01 2.68e-01f  1
 259r 6.0344647e+01 7.26e-01 3.49e+01  -1.5 1.64e+01   0.5 7.24e-02 6.49e-03f  1
iter    objective    inf_pr   inf_du lg(mu)  ||d||  lg(rg) alpha_du alpha_pr  ls
 260r 6.0344647e+01 7.26e-01 3.40e+01  -1.5 2.64e+02  -0.0 2.75e-03 4.21e-03f  1
 261r 6.0344647e+01 7.26e-01 5.70e+02  -1.5 1.16e-01   3.1 1.00e+00 4.67e-02f  1
 262r 6.0344647e+01 7.26e-01 2.36e+02  -1.5 7.94e-02   2.6 1.00e+00 7.12e-01f  1
 263r 6.0344647e+01 7.26e-01 3.43e+01  -1.5 2.40e-01   2.2 1.00e+00 1.00e+00f  1
 264r 6.0344647e+01 7.25e-01 2.22e+02  -1.5 7.31e-01   1.7 9.69e-01 2.80e-01f  1
 265r 6.0344647e+01 7.25e-01 2.36e+02  -1.5 2.29e+00   1.2 1.18e-01 5.58e-02f  1
 266r 6.0344647e+01 7.25e-01 4.09e+02  -1.5 1.02e-01   2.5 1.00e+00 2.54e-01f  1
 267r 6.0344647e+01 7.25e-01 2.32e+02  -1.5 3.08e-01   2.1 1.00e+00 4.85e-01f  1
 268r 6.0344647e+01 7.25e-01 4.25e+02  -1.5 9.31e-01   1.6 6.29e-01 1.25e-01f  1
 269r 6.0344647e+01 7.25e-01 8.08e+02  -1.5 2.68e+00   1.1 9.74e-01 2.70e-02f  1
iter    objective    inf_pr   inf_du lg(mu)  ||d||  lg(rg) alpha_du alpha_pr  ls
 270r 6.0344647e+01 7.25e-01 7.98e+02  -1.5 3.92e+01   0.6 1.10e-04 1.23e-02f  1
 271r 6.0344647e+01 7.25e-01 7.84e+02  -1.5 1.84e+01   0.1 1.45e-02 1.74e-02f  1
 272r 6.0344647e+01 7.25e-01 4.50e+02  -1.5 1.59e-02   3.3 1.00e+00 3.54e-01f  1
 273r 6.0344647e+01 7.25e-01 3.06e+01  -1.5 4.81e-02   2.8 1.00e+00 1.00e+00f  1
 274r 6.0344647e+01 7.25e-01 4.84e+01  -1.5 1.43e-01   2.3 1.08e-01 6.50e-01f  1
 275r 6.0344647e+01 7.25e-01 3.05e+01  -1.5 4.32e-01   1.8 1.00e+00 8.77e-01f  1
 276r 6.0344647e+01 7.25e-01 3.03e+01  -1.5 1.27e+00   1.4 2.40e-02 2.98e-01f  1
 277r 6.0344647e+01 7.25e-01 3.06e+01  -1.5 4.17e+00   0.9 2.83e-02 1.12e-01f  1
 278r 6.0344647e+01 7.25e-01 1.65e+02  -1.5 4.87e-02   3.1 1.00e+00 4.76e-02f  1
 279r 6.0344647e+01 7.25e-01 9.45e+01  -1.5 5.01e-02   2.6 1.00e+00 6.48e-01f  1
iter    objective    inf_pr   inf_du lg(mu)  ||d||  lg(rg) alpha_du alpha_pr  ls
 280r 6.0344647e+01 7.25e-01 2.44e+02  -1.5 1.08e-01   2.2 1.00e+00 4.47e-01f  1
 281r 6.0344647e+01 7.24e-01 1.62e+01  -1.5 3.27e-01   1.7 1.00e+00 1.00e+00f  1
 282r 6.0344647e+01 7.24e-01 3.16e+02  -1.5 9.95e-01   1.2 8.72e-01 4.61e-01f  1
 283r 6.0344647e+01 7.23e-01 2.02e+02  -1.5 3.08e+00   0.7 3.76e-01 2.93e-01f  1
 284r 6.0344647e+01 7.23e-01 2.98e+02  -1.5 9.61e+00   0.3 2.69e-01 1.40e-02f  1
 285r 6.0344647e+01 7.23e-01 2.95e+02  -1.5 4.47e+01  -0.2 6.76e-02 7.16e-03f  1
 286r 6.0344647e+01 7.22e-01 2.63e+02  -1.5 1.76e+01   0.2 7.17e-04 1.14e-01f  1
 287r 6.0344647e+01 7.20e-01 2.46e+02  -1.5 5.24e+01  -0.3 2.83e-03 6.47e-02f  1
 288r 6.0344647e+01 7.20e-01 2.89e+02  -1.5 2.14e-02   2.9 1.00e+00 4.90e-01f  1
 289r 6.0344647e+01 7.20e-01 1.62e+01  -1.5 6.55e-02   2.4 1.00e+00 1.00e+00f  1
iter    objective    inf_pr   inf_du lg(mu)  ||d||  lg(rg) alpha_du alpha_pr  ls
 290r 6.0344647e+01 7.20e-01 1.62e+01  -1.5 1.97e-01   1.9 1.00e+00 1.00e+00f  1
 291r 6.0344647e+01 7.20e-01 1.63e+01  -1.5 5.93e-01   1.4 1.00e+00 1.00e+00f  1
 292r 6.0344647e+01 7.20e-01 4.78e+01  -1.5 1.70e+00   1.0 1.00e+00 1.03e-01f  1
 293r 6.0344647e+01 7.19e-01 5.47e+02  -1.5 5.46e+00   0.5 8.70e-01 8.60e-02f  1
 294r 6.0344647e+01 7.19e-01 5.21e+02  -1.5 5.07e+01   0.0 3.01e-04 3.46e-02f  1
 295r 6.0344647e+01 7.19e-01 4.90e+02  -1.5 1.26e+01   0.4 1.24e-02 4.62e-02f  1
 296r 6.0344647e+01 7.19e-01 2.80e+02  -1.5 1.03e-01   2.7 7.42e-01 5.31e-01f  1
 297r 6.0344647e+01 7.19e-01 5.96e+01  -1.5 4.81e-02   3.1 1.00e+00 1.00e+00f  1
 298r 6.0344647e+01 7.18e-01 1.58e+02  -1.5 5.30e-02   2.6 6.72e-01 2.50e-01f  1
 299r 6.0344647e+01 7.18e-01 1.45e+02  -1.5 1.23e-01   2.1 6.74e-01 9.84e-01f  1
iter    objective    inf_pr   inf_du lg(mu)  ||d||  lg(rg) alpha_du alpha_pr  ls
 300r 6.0344647e+01 7.18e-01 9.32e+01  -1.5 3.92e-01   1.7 1.00e+00 5.74e-01f  1
 301r 6.0344647e+01 7.18e-01 7.45e+02  -1.5 1.06e+00   1.2 2.50e-01 7.75e-02f  1
 302r 6.0344647e+01 7.17e-01 7.71e+01  -1.5 3.31e+00   0.7 8.21e-03 3.03e-01f  1
 303r 6.0344647e+01 7.17e-01 4.70e+02  -1.5 1.08e+01   0.2 1.93e-01 3.85e-02f  1
 304r 6.0344647e+01 7.17e-01 4.92e+02  -1.5 6.84e+01  -0.2 1.48e-02 5.79e-03f  1
 305r 6.0344647e+01 7.17e-01 7.63e+02  -1.5 1.26e+01   0.2 1.31e-01 1.57e-02f  1
 306r 6.0344647e+01 7.12e-01 5.50e+02  -1.5 1.09e+02  -0.3 5.28e-03 1.59e-01f  1
 307r 6.0344647e+01 7.12e-01 5.43e+02  -1.5 2.30e+01   0.1 3.22e-01 5.20e-03f  1
 308r 6.0344647e+01 7.12e-01 1.95e+03  -1.5 7.25e+00  -0.3 8.76e-01 3.25e-03f  1
 309r 6.0344647e+01 2.48e+00 5.13e+02  -1.5 5.14e+01  -0.8 7.98e-02 6.74e-01f  1
iter    objective    inf_pr   inf_du lg(mu)  ||d||  lg(rg) alpha_du alpha_pr  ls
 310r 6.0344647e+01 2.48e+00 5.10e+02  -1.5 5.54e+01  -0.4 1.36e-01 1.25e-03f  1
 311r 6.0344647e+01 2.47e+00 1.24e+03  -1.5 2.09e+04  -0.9 2.67e-03 2.49e-03f  1
 312r 6.0344647e+01 2.33e+00 1.18e+03  -1.5 8.21e+01  -0.5 4.03e-02 5.76e-02f  1
 313r 6.0344647e+01 2.33e+00 1.18e+03  -1.5 7.78e+02  -0.9 1.01e-02 7.03e-05f  1
 314r 6.0344647e+01 2.33e+00 1.18e+03  -1.5 2.22e+01  -0.5 2.30e-01 8.34e-04f  1
 315r 6.0343003e+01 2.32e+00 1.22e+03  -1.5 2.93e+04    -  6.09e-03 3.58e-03f  1
 316r 6.0342802e+01 2.31e+00 1.63e+03  -1.5 4.00e+03    -  1.13e-01 2.69e-03f  1
 317r 6.0342300e+01 2.30e+00 1.62e+03  -1.5 9.15e+03    -  1.11e-03 3.04e-03f  1
 318r 6.0342300e+01 1.98e+00 1.38e+03  -1.5 2.18e+01  -0.1 1.84e-01 1.39e-01f  1
 319r 6.0342300e+01 1.65e+00 8.94e+02  -1.5 1.18e+02  -0.6 1.77e-03 1.70e-01f  1
iter    objective    inf_pr   inf_du lg(mu)  ||d||  lg(rg) alpha_du alpha_pr  ls
 320r 6.0342300e+01 1.64e+00 8.91e+02  -1.5 3.39e+01  -0.1 2.13e-01 4.11e-03f  1
 321r 6.0342300e+01 1.64e+00 8.89e+02  -1.5 3.27e+01  -0.6 3.20e-02 2.21e-03f  1
 322r 6.0342300e+01 1.63e+00 8.84e+02  -1.5 3.78e+02  -1.1 7.22e-03 4.86e-03f  1
 323r 6.0341140e+01 1.62e+00 8.80e+02  -1.5 9.66e+03    -  7.49e-03 4.41e-03f  1
 324r 6.0341140e+01 1.37e+00 8.71e+02  -1.5 1.47e+01   0.2 2.79e-01 1.55e-01f  1
 325r 6.0341140e+01 1.23e+00 7.03e+02  -1.5 3.89e+01  -0.2 3.00e-03 9.96e-02f  1
 326r 6.0341140e+01 1.18e+00 6.74e+02  -1.5 1.66e+01   0.2 9.29e-03 4.30e-02f  1
 327r 6.0341140e+01 1.18e+00 6.72e+02  -1.5 7.02e+01  -0.3 5.79e-02 3.65e-03f  1
 328r 6.0341140e+01 1.16e+00 1.85e+03  -1.5 1.37e+01   0.1 3.31e-01 1.56e-02f  1
 329r 6.0341140e+01 1.06e+00 1.02e+03  -1.5 1.48e+02  -0.3 2.05e-03 8.67e-02f  1
iter    objective    inf_pr   inf_du lg(mu)  ||d||  lg(rg) alpha_du alpha_pr  ls
 330r 6.0341140e+01 1.03e+00 1.00e+03  -1.5 2.39e+01   0.1 9.52e-02 2.26e-02f  1
 331r 6.0341140e+01 1.02e+00 1.84e+03  -1.5 9.06e+00   0.5 2.55e-01 1.42e-02f  1
 332r 6.0341140e+01 9.20e-01 1.16e+03  -1.5 2.91e+01   0.0 3.53e-03 9.67e-02f  1
 333r 6.0341024e+01 9.20e-01 1.16e+03  -1.5 3.50e+04    -  8.85e-04 1.66e-04f  1
 334r 6.0339580e+01 9.13e-01 1.15e+03  -1.5 6.26e+03    -  5.11e-02 7.84e-03f  1
 335r 6.0338136e+01 9.04e-01 1.45e+03  -1.5 5.00e+03    -  1.38e-01 9.73e-03f  1
 336r 6.0332020e+01 2.63e+00 1.12e+03  -1.5 5.39e+03    -  1.34e-03 3.90e-02f  1
 337r 6.0332020e+01 2.62e+00 1.43e+03  -1.5 7.39e+01  -0.4 8.24e-02 3.54e-03f  1
 338r 6.0332020e+01 2.53e+00 1.20e+03  -1.5 2.01e+01  -0.0 6.37e-04 3.64e-02f  1
 339r 6.0332020e+01 2.52e+00 1.19e+03  -1.5 9.95e+01  -0.5 4.56e-03 3.57e-03f  1
iter    objective    inf_pr   inf_du lg(mu)  ||d||  lg(rg) alpha_du alpha_pr  ls
 340r 6.0332020e+01 2.40e+00 1.43e+03  -1.5 1.65e+01  -0.1 1.83e-01 4.45e-02f  1
 341r 6.0332020e+01 2.09e+00 9.88e+02  -1.5 1.78e+02  -0.5 2.12e-03 1.30e-01f  1
 342r 6.0332020e+01 2.08e+00 9.86e+02  -1.5 3.10e+01  -0.1 4.66e-02 4.96e-03f  1
 343r 6.0332020e+01 2.07e+00 9.75e+02  -1.5 7.08e+00   0.3 6.07e-01 6.15e-03f  1
 344r 6.0332020e+01 1.96e+00 9.20e+02  -1.5 3.17e+01  -0.2 1.04e-02 5.30e-02f  1
 345r 6.0332020e+01 1.94e+00 1.91e+03  -1.5 8.55e+00   0.3 4.64e-01 8.45e-03f  1
 346r 6.0320402e+01 1.87e+00 1.29e+03  -1.5 1.58e+04    -  1.23e-03 3.62e-02f  1
 347r 6.0320402e+01 1.83e+00 1.26e+03  -1.5 6.74e+01  -0.2 3.01e-02 2.19e-02f  1
 348r 6.0320402e+01 1.76e+00 1.21e+03  -1.5 1.16e+01   0.2 1.93e-01 3.93e-02f  1
 349r 6.0320402e+01 1.49e+00 1.03e+03  -1.5 1.58e+02  -0.3 3.04e-03 1.52e-01f  1
iter    objective    inf_pr   inf_du lg(mu)  ||d||  lg(rg) alpha_du alpha_pr  ls
 350r 6.0320402e+01 1.49e+00 1.02e+03  -1.5 3.26e+01   0.2 2.63e-01 4.02e-03f  1
 351r 6.0320402e+01 1.48e+00 1.02e+03  -1.5 2.38e+01  -0.3 4.05e-02 4.22e-03f  1
 352r 6.0320402e+01 1.28e+00 1.06e+03  -1.5 6.73e+00   0.1 1.00e+00 1.34e-01f  1
 353r 6.0320402e+01 1.03e+00 8.42e+02  -1.5 2.92e+01  -0.4 4.57e-02 1.97e-01f  1
 354r 6.0320402e+01 2.10e+00 6.29e+02  -1.5 9.25e+00   0.1 9.40e-02 2.77e-01f  1
 355r 6.0320402e+01 2.09e+00 5.97e+02  -1.5 5.31e+01  -0.4 1.34e-01 1.33e-03f  1
 356r 6.0320402e+01 1.80e+00 1.42e+03  -1.5 1.15e+01   0.0 4.19e-01 1.41e-01f  1
 357r 6.0320402e+01 1.13e+00 3.58e+02  -1.5 7.59e+01  -0.5 6.58e-03 3.72e-01f  1
 358r 6.0320402e+01 1.12e+00 3.56e+02  -1.5 2.40e+01  -0.0 3.75e-01 6.84e-03f  1
 359r 6.0320402e+01 1.12e+00 3.55e+02  -1.5 2.53e+01  -0.5 2.74e-02 3.48e-03f  1
iter    objective    inf_pr   inf_du lg(mu)  ||d||  lg(rg) alpha_du alpha_pr  ls
 360r 6.0315825e+01 1.08e+00 3.44e+02  -1.5 5.68e+03    -  5.15e-02 3.23e-02f  1
 361r 6.0315825e+01 7.95e-01 2.70e+02  -1.5 9.37e+00  -0.1 2.36e-02 2.65e-01f  1
 362r 6.0315825e+01 5.23e-01 5.79e+02  -1.5 1.04e+02  -0.6 4.05e-01 3.42e-01f  1
 363  2.5760808e+01 3.75e+00 5.18e+04  -1.0 5.05e+05    -  6.27e-02 7.42e-01f  1
 364  9.9671249e+00 1.86e+00 8.67e+03  -1.0 1.98e+05    -  2.29e-01 9.90e-01f  1
 365  6.5835022e+00 9.64e-01 5.10e+05  -1.0 2.07e+05    -  3.21e-01 9.90e-01h  1
 366  6.6807991e+01 4.48e-01 4.16e+07  -1.0 3.52e+05    -  4.44e-01 9.90e-01h  1
 367  2.3656731e+02 1.62e-01 2.08e+09  -1.0 4.03e+05    -  7.17e-01 9.90e-01h  1
 368  7.1012167e+02 1.76e+00 2.33e+11  -1.0 5.13e+05    -  6.84e-01 9.90e-01H  1
In iteration 368, 27 Slacks too small, adjusting variable bounds
 369  3.4476002e+02 2.89e-02 5.87e+09  -1.0 4.68e+05    -  9.90e-01 9.90e-01f  1
iter    objective    inf_pr   inf_du lg(mu)  ||d||  lg(rg) alpha_du alpha_pr  ls
 370  3.6450326e+02 4.81e-04 1.78e+12  -2.5 5.29e+04    -  9.77e-01 1.00e+00h  1
 371  1.2274968e+02 2.07e+00 5.12e+09  -2.5 1.82e+05    -  9.97e-01 1.00e+00F  1
 372  4.8034712e+01 1.96e+01 1.61e+07  -2.5 8.60e+05    -  9.97e-01 2.55e-01H  1
 373  4.6486614e+01 3.26e+00 1.26e+07  -2.5 1.83e+04  -4.0 2.20e-01 1.00e+00h  1
 374  4.4530526e+01 1.81e+00 8.06e+02  -2.5 7.15e+04    -  1.00e+00 1.00e+00h  1
 375  3.6269023e+01 7.93e-01 6.05e+02  -2.5 1.71e+05  -4.5 3.85e-01 1.00e+00f  1
 376  3.0153206e+01 2.20e-01 1.03e+03  -2.5 2.16e+05  -5.0 1.00e+00 1.00e+00f  1
 377  2.9742549e+01 2.25e-02 9.18e+02  -2.5 1.09e+05  -5.4 1.00e+00 1.00e+00f  1
 378  2.9805749e+01 2.62e-04 9.16e+01  -3.8 1.36e+04  -5.9 1.00e+00 1.00e+00h  1
 379  2.9795385e+01 5.12e-08 2.77e-02  -5.7 1.93e+02  -6.4 1.00e+00 1.00e+00h  1
iter    objective    inf_pr   inf_du lg(mu)  ||d||  lg(rg) alpha_du alpha_pr  ls
 380  3.7156971e+00 1.09e-01 3.39e+06  -8.6 2.93e+05    -  6.52e-01 1.00e+00f  1
 381  3.7623036e+00 2.85e-04 5.35e-02  -8.6 1.26e+04    -  1.00e+00 1.00e+00h  1
 382  3.7616940e+00 2.56e-08 2.61e-06  -8.6 1.59e+02    -  1.00e+00 1.00e+00h  1
 383  3.7616940e+00 7.31e-13 1.82e-12  -8.6 5.18e-02    -  1.00e+00 1.00e+00h  1

Number of Iterations....: 383

                                   (scaled)                 (unscaled)
Objective...............:   3.7616939856129137e+00    3.7616939856129137e+00
Dual infeasibility......:   1.8189894035458565e-12    1.8189894035458565e-12
Constraint violation....:   7.3074879480827803e-13    7.3074879480827803e-13
Complementarity.........:   2.5059035596971145e-09    2.5059035596971145e-09
Overall NLP error.......:   3.4214571063318320e-10    2.5059035596971145e-09


Number of objective function evaluations             = 446
Number of objective gradient evaluations             = 37
Number of equality constraint evaluations            = 446
Number of inequality constraint evaluations          = 0
Number of equality constraint Jacobian evaluations   = 387
Number of inequality constraint Jacobian evaluations = 0
Number of Lagrangian Hessian evaluations             = 383
Total CPU secs in IPOPT (w/o function evaluations)   =      0.584
Total CPU secs in NLP function evaluations           =      6.719

EXIT: Optimal Solution Found.
